p cnf 100 93
1 2 -3 -4 -5 -6 -7 -8 -9 -10 0
2 3 -4 -5 -6 -7 -8 -9 -10 0
3 4 -5 -6 -7 -8 -9 -10 0
4 5 -6 -7 -8 -9 -10 0
5 6 -7 -8 -9 -10 0
6 7 -8 -9 -10 0
7 8 -9 -10 0
8 9 -10 0
9 10 0
11 12 -13 -14 -15 -16 -17 -18 -19 -20 0
12 13 -14 -15 -16 -17 -18 -19 -20 0
13 14 -15 -16 -17 -18 -19 -20 0
14 15 -16 -17 -18 -19 -20 0
15 16 -17 -18 -19 -20 0
16 17 -18 -19 -20 0
17 18 -19 -20 0
18 19 -20 0
19 20 0
21 -22 23 24 25 26 27 28 -29 30 0
31 32 33 34 35 36 37 38 39 40 0
41 42 43 44 45 46 47 48 -49 -50 0
42 43 44 45 46 47 48 49 -50 0
43 44 45 46 47 48 49 50 0
51 52 53 54 55 56 57 58 -59 -60 0
52 53 54 55 56 57 58 59 -60 0
53 54 55 56 57 58 59 60 0
61 62 63 64 65 66 67 68 -69 -70 0
62 63 64 65 66 67 68 69 -70 0
63 64 65 66 67 68 69 70 0
71 72 73 74 75 76 77 78 79 80 0
81 -82 83 84 85 86 87 88 -89 90 0
91 -92 93 94 95 96 -97 98 -99 -100 0
91 -92 93 94 95 96 -97 99 -100 0
91 -92 93 94 95 96 -97 100 0
91 -92 94 95 96 97 -98 99 -100 0
91 -92 94 95 96 97 -98 100 0
91 -92 95 96 97 98 -99 100 0
92 -93 94 95 96 97 -98 99 -100 0
92 -93 94 95 96 97 -98 100 0
92 -93 95 96 97 98 -99 100 0
93 -94 95 96 97 98 -99 100 0
1 11 -21 31 41 51 -61 -71 -81 -91 0
1 11 -21 41 51 61 -71 -81 -91 0
1 11 -21 51 61 71 -81 -91 0
1 11 -21 61 71 81 -91 0
1 11 -21 71 81 91 0
11 21 -31 41 51 61 -71 -81 -91 0
11 21 -31 51 61 71 -81 -91 0
11 21 -31 61 71 81 -91 0
11 21 -31 71 81 91 0
21 31 -41 51 61 71 -81 -91 0
21 31 -41 61 71 81 -91 0
21 31 -41 71 81 91 0
31 41 -51 61 71 81 -91 0
31 41 -51 71 81 91 0
41 51 -61 71 81 91 0
2 12 22 32 42 -52 -62 -72 -82 -92 0
12 22 32 42 52 -62 -72 -82 -92 0
22 32 42 52 62 -72 -82 -92 0
32 42 52 62 72 -82 -92 0
42 52 62 72 82 -92 0
52 62 72 82 92 0
3 13 23 33 43 53 63 -73 -83 -93 0
13 23 33 43 53 63 73 -83 -93 0
23 33 43 53 63 73 83 -93 0
33 43 53 63 73 83 93 0
4 14 24 34 44 54 64 74 -84 -94 0
14 24 34 44 54 64 74 84 -94 0
24 34 44 54 64 74 84 94 0
5 15 25 35 45 55 65 75 85 95 0
6 16 26 36 46 56 66 76 86 96 0
7 17 27 37 47 57 67 77 -87 -97 0
17 27 37 47 57 67 77 87 -97 0
27 37 47 57 67 77 87 97 0
8 18 28 38 48 58 68 -78 -88 -98 0
18 28 38 48 58 68 78 -88 -98 0
28 38 48 58 68 78 88 -98 0
38 48 58 68 78 88 98 0
9 19 29 39 49 -59 -69 -79 -89 -99 0
19 29 39 49 59 -69 -79 -89 -99 0
29 39 49 59 69 -79 -89 -99 0
39 49 59 69 79 -89 -99 0
49 59 69 79 89 -99 0
59 69 79 89 99 0
10 20 -30 -40 -50 -60 -70 -80 -90 -100 0
20 30 -40 -50 -60 -70 -80 -90 -100 0
30 40 -50 -60 -70 -80 -90 -100 0
40 50 -60 -70 -80 -90 -100 0
50 60 -70 -80 -90 -100 0
60 70 -80 -90 -100 0
70 80 -90 -100 0
80 90 -100 0
90 100 0
